% Escenario 7:
% - 3 plantas
% - 3 clientes
% - 4 días
% Se incrementa n=4, demands y G=0.5. Distintos costos y capac.

np = 3;
nc = 3;
nd = 4;

nombrePlanta = ["Nuclear", "Hidroelectrica", "Termica"];
nombreCliente = ["Cli1", "Cli2", "Cli3"];

costo = [33.0, 26.0, 49.0];
cap = [950, 250, 400];
pago = [105.0, 110.0, 90.0];

dem = array2d(1..nc, 1..nd, [
  100, 120, 150, 80,
  120, 100, 130, 90,
  100, 130, 140, 140
]);

G = 0.50;

umbralAlto = [0.8, 0.8, 0.8];
maxDiasAlto = [1, 1, 1];
